c read Graph
c width = 19
c time = 30 ms
c width = 3
c time = 45 ms
c width = 3
c time = 5225 ms
s td 36 4 39
b 1 1 2 14
b 2 2 3 14 15
b 3 11 12 25 26
b 4 3 14 15 28
b 5 3 15 16 28
b 6 11 25 26 38
b 7 3 16 28 29
b 8 3 16 29 30
b 9 11 25 37 38
b 10 3 4 16 30
b 11 4 16 17 30
b 12 4 17 18 30
b 13 11 24 25 37
b 14 4 18 30 31
b 15 4 18 31 32
b 16 11 24 36 37
b 17 4 5 18 32
b 18 5 18 19 32
b 19 5 6 19 32
b 20 11 23 24 36
b 21 10 11 23 36
b 22 6 7 19 32
b 23 7 19 20 32
b 24 7 20 32 33
b 25 7 8 20 33
b 26 8 20 21 33
b 27 8 21 33 34
b 28 8 9 21 34
b 29 9 21 22 34
b 30 9 22 34 35
b 31 9 10 22 35
b 32 10 22 23 35
b 33 10 23 35 36
b 34 26 38 39
b 35 14 27 28
b 36 12 13 26
1 2
2 4
3 36
3 6
4 35
4 5
5 7
6 34
6 9
7 8
8 10
9 13
10 11
11 12
12 14
13 16
14 15
15 17
16 20
17 18
18 19
19 22
20 21
21 33
22 23
23 24
24 25
25 26
26 27
27 28
28 29
29 30
30 31
31 32
32 33
